Version identifier: 22.1.1.0 | 2022-11-28 | 9160aff4d
CPXPARAM_ClockType                               1
CPXPARAM_Read_DataCheck                          1
CPXPARAM_Threads                                 1
CPXPARAM_TimeLimit                               7200
CPXPARAM_MIP_Tolerances_AbsMIPGap                0
CPXPARAM_MIP_Tolerances_MIPGap                   0
CPXPARAM_MIP_Tolerances_Integrality              0
Tried aggregator 2 times.
MIP Presolve eliminated 5624 rows and 2592 columns.
MIP Presolve modified 1870 coefficients.
Aggregator did 376 substitutions.
Reduced MIP has 1254 rows, 940 columns, and 3072 nonzeros.
Reduced MIP has 940 binaries, 0 generals, 0 SOSs, and 0 indicators.
Presolve time = 0.01 sec. (7.29 ticks)
Found incumbent of value 0.000000 after 0.01 sec. (8.54 ticks)
Probing time = 0.01 sec. (1.99 ticks)
Tried aggregator 1 time.
Detecting symmetries...
Reduced MIP has 1254 rows, 940 columns, and 3072 nonzeros.
Reduced MIP has 940 binaries, 0 generals, 0 SOSs, and 0 indicators.
Presolve time = 0.00 sec. (2.81 ticks)
Probing time = 0.00 sec. (1.97 ticks)
Clique table members: 2526.
MIP emphasis: balance optimality and feasibility.
MIP search method: dynamic search.
Parallel mode: none, using 1 thread.
Root relaxation solution time = 0.00 sec. (2.74 ticks)

        Nodes                                         Cuts/
   Node  Left     Objective  IInf  Best Integer    Best Bound    ItCnt     Gap

*     0+    0                            0.0000      188.0000              --- 
*     0     0      integral     0      188.0000      188.0000      339    0.00%
Elapsed time = 0.03 sec. (20.50 ticks, tree = 0.00 MB, solutions = 2)

Root node processing (before b&c):
  Real time             =    0.04 sec. (20.64 ticks)
Sequential b&c:
  Real time             =    0.00 sec. (0.00 ticks)
                          ------------
Total (root+branch&cut) =    0.04 sec. (20.64 ticks)
Solution is feasible.

---------------------
@@@ MIP_optimal
>>> Benchmark mc2024_track1_184.cnf k 2 OPT 188 TimeCost 0.6288106441497803 TimeSolve 0.0388033390045166 TimeRead 0.005716562271118164 TimeTrans 0.5842907428741455
